results/mps/FMS_03_deadline_heurTrue.mps
NAME JobShopModel
ROWS
 N  OBJ
 G  c0      
 L  c1      
 G  c2      
 L  c3      
 G  c4      
 L  c5      
 G  c6      
 L  c7      
 G  c8      
 L  c9      
 G  c10     
 G  c11     
 G  c12     
 G  c13     
 G  c14     
 E  c15     
 E  c16     
 E  c17     
 E  c18     
 E  c19     
 E  c20     
 L  c21     
 L  c22     
 L  c23     
 L  c24     
 L  c25     
 L  c26     
 L  c27     
 L  c28     
 L  c29     
 L  c30     
 G  c31     
 G  c32     
 G  c33     
 G  c34     
 G  c35     
 G  c36     
 G  c37     
 G  c38     
 G  c39     
 G  c40     
 G  c41     
 G  c42     
 G  c43     
 G  c44     
 G  c45     
 G  c46     
 G  c47     
 G  c48     
 G  c49     
 G  c50     
 G  c51     
 G  c52     
 G  c53     
 G  c54     
 G  c55     
 G  c56     
 G  c57     
 G  c58     
 G  c59     
 G  c60     
 G  c61     
 G  c62     
 G  c63     
 G  c64     
 G  c65     
 G  c66     
 G  c67     
 G  c68     
 G  c69     
 G  c70     
 G  c71     
 G  c72     
 G  c73     
 G  c74     
 G  c75     
 G  c76     
 G  c77     
 G  c78     
 G  c79     
 G  c80     
 G  c81     
 G  c82     
 G  c83     
 G  c84     
 G  c85     
 G  c86     
 G  c87     
 G  c88     
 G  c89     
 G  c90     
 G  c91     
 G  c92     
 G  c93     
 G  c94     
 G  c95     
 G  c96     
 G  OF_constraint
COLUMNS
    MARKER    'MARKER'                 'INTORG'
    y[0,0,0]  c0        87
    y[0,0,0]  c1        87
    y[0,0,0]  c15       1
    y[0,0,0]  c21       -10000000
    y[0,0,0]  c34       -10000000
    y[0,0,0]  c35       -10000000
    y[0,0,0]  c38       -10000000
    y[0,0,0]  c39       -10000000
    y[0,0,0]  c42       -10000000
    y[0,0,0]  c43       -10000000
    y[0,0,0]  c46       -10000000
    y[0,0,0]  c47       -10000000
    y[0,0,0]  c50       -10000000
    y[0,0,0]  c51       -10000000
    y[0,0,1]  c2        95
    y[0,0,1]  c3        95
    y[0,0,1]  c15       1
    y[0,0,1]  c22       -10000000
    y[0,0,1]  c36       -10000000
    y[0,0,1]  c37       -10000000
    y[0,0,1]  c40       -10000000
    y[0,0,1]  c41       -10000000
    y[0,0,1]  c44       -10000000
    y[0,0,1]  c45       -10000000
    y[0,0,1]  c48       -10000000
    y[0,0,1]  c49       -10000000
    y[0,1,0]  c16       1
    y[0,1,0]  c23       -10000000
    y[0,1,0]  c31       -43
    y[0,1,0]  c34       -10000000
    y[0,1,0]  c35       -10000000
    y[0,1,0]  c50       -10000000
    y[0,1,0]  c51       -10000000
    y[0,1,0]  c52       -10000000
    y[0,1,0]  c53       -10000000
    y[0,1,0]  c54       -10000000
    y[0,1,0]  c55       -10000000
    y[0,1,0]  c56       -10000000
    y[0,1,0]  c57       -10000000
    y[0,1,0]  c84       -480
    y[1,0,1]  c4        73
    y[1,0,1]  c5        73
    y[1,0,1]  c17       1
    y[1,0,1]  c24       -10000000
    y[1,0,1]  c36       -10000000
    y[1,0,1]  c37       -10000000
    y[1,0,1]  c58       -10000000
    y[1,0,1]  c59       -10000000
    y[1,0,1]  c60       -10000000
    y[1,0,1]  c61       -10000000
    y[1,0,1]  c62       -10000000
    y[1,0,1]  c63       -10000000
    y[1,0,1]  c64       -10000000
    y[1,0,1]  c65       -10000000
    y[1,1,0]  c18       1
    y[1,1,0]  c25       -10000000
    y[1,1,0]  c32       -63
    y[1,1,0]  c38       -10000000
    y[1,1,0]  c39       -10000000
    y[1,1,0]  c52       -10000000
    y[1,1,0]  c53       -10000000
    y[1,1,0]  c66       -10000000
    y[1,1,0]  c67       -10000000
    y[1,1,0]  c70       -10000000
    y[1,1,0]  c71       -10000000
    y[1,1,0]  c87       -480
    y[1,1,1]  c18       1
    y[1,1,1]  c26       -10000000
    y[1,1,1]  c32       -53
    y[1,1,1]  c40       -10000000
    y[1,1,1]  c41       -10000000
    y[1,1,1]  c58       -10000000
    y[1,1,1]  c59       -10000000
    y[1,1,1]  c64       -10000000
    y[1,1,1]  c65       -10000000
    y[1,1,1]  c68       -10000000
    y[1,1,1]  c69       -10000000
    y[1,1,1]  c72       -10000000
    y[1,1,1]  c73       -10000000
    y[1,1,1]  c89       -480
    y[2,0,0]  c6        43
    y[2,0,0]  c7        43
    y[2,0,0]  c19       1
    y[2,0,0]  c27       -10000000
    y[2,0,0]  c42       -10000000
    y[2,0,0]  c43       -10000000
    y[2,0,0]  c54       -10000000
    y[2,0,0]  c55       -10000000
    y[2,0,0]  c66       -10000000
    y[2,0,0]  c67       -10000000
    y[2,0,0]  c74       -10000000
    y[2,0,0]  c75       -10000000
    y[2,0,0]  c78       -10000000
    y[2,0,0]  c79       -10000000
    y[2,0,1]  c8        61
    y[2,0,1]  c9        61
    y[2,0,1]  c19       1
    y[2,0,1]  c28       -10000000
    y[2,0,1]  c44       -10000000
    y[2,0,1]  c45       -10000000
    y[2,0,1]  c60       -10000000
    y[2,0,1]  c61       -10000000
    y[2,0,1]  c68       -10000000
    y[2,0,1]  c69       -10000000
    y[2,0,1]  c76       -10000000
    y[2,0,1]  c77       -10000000
    y[2,0,1]  c80       -10000000
    y[2,0,1]  c81       -10000000
    y[2,1,0]  c20       1
    y[2,1,0]  c29       -10000000
    y[2,1,0]  c33       -125
    y[2,1,0]  c46       -10000000
    y[2,1,0]  c47       -10000000
    y[2,1,0]  c56       -10000000
    y[2,1,0]  c57       -10000000
    y[2,1,0]  c70       -10000000
    y[2,1,0]  c71       -10000000
    y[2,1,0]  c74       -10000000
    y[2,1,0]  c75       -10000000
    y[2,1,0]  c78       -10000000
    y[2,1,0]  c79       -10000000
    y[2,1,0]  c93       -480
    y[2,1,1]  c20       1
    y[2,1,1]  c30       -10000000
    y[2,1,1]  c33       -135
    y[2,1,1]  c48       -10000000
    y[2,1,1]  c49       -10000000
    y[2,1,1]  c62       -10000000
    y[2,1,1]  c63       -10000000
    y[2,1,1]  c72       -10000000
    y[2,1,1]  c73       -10000000
    y[2,1,1]  c76       -10000000
    y[2,1,1]  c77       -10000000
    y[2,1,1]  c80       -10000000
    y[2,1,1]  c81       -10000000
    y[2,1,1]  c95       -480
    x[0,0,0,0]  OBJ       0
    x[0,0,0,1]  c34       10000000
    x[0,0,0,1]  c35       -10000000
    x[0,0,1,0]  c36       10000000
    x[0,0,1,0]  c37       -10000000
    x[0,0,1,1]  c38       10000000
    x[0,0,1,1]  c39       -10000000
    x[0,0,1,1]  c40       10000000
    x[0,0,1,1]  c41       -10000000
    x[0,0,2,0]  c42       10000000
    x[0,0,2,0]  c43       -10000000
    x[0,0,2,0]  c44       10000000
    x[0,0,2,0]  c45       -10000000
    x[0,0,2,1]  c46       10000000
    x[0,0,2,1]  c47       -10000000
    x[0,0,2,1]  c48       10000000
    x[0,0,2,1]  c49       -10000000
    x[0,1,0,0]  c50       10000000
    x[0,1,0,0]  c51       -10000000
    x[0,1,0,1]  OBJ       0
    x[0,1,1,0]  OBJ       0
    x[0,1,1,1]  c52       10000000
    x[0,1,1,1]  c53       -10000000
    x[0,1,2,0]  c54       10000000
    x[0,1,2,0]  c55       -10000000
    x[0,1,2,1]  c56       10000000
    x[0,1,2,1]  c57       -10000000
    x[1,0,0,0]  OBJ       0
    x[1,0,0,1]  OBJ       0
    x[1,0,1,0]  OBJ       0
    x[1,0,1,1]  c58       10000000
    x[1,0,1,1]  c59       -10000000
    x[1,0,2,0]  c60       10000000
    x[1,0,2,0]  c61       -10000000
    x[1,0,2,1]  c62       10000000
    x[1,0,2,1]  c63       -10000000
    x[1,1,0,0]  OBJ       0
    x[1,1,0,1]  OBJ       0
    x[1,1,1,0]  c64       10000000
    x[1,1,1,0]  c65       -10000000
    x[1,1,1,1]  OBJ       0
    x[1,1,2,0]  c66       10000000
    x[1,1,2,0]  c67       -10000000
    x[1,1,2,0]  c68       10000000
    x[1,1,2,0]  c69       -10000000
    x[1,1,2,1]  c70       10000000
    x[1,1,2,1]  c71       -10000000
    x[1,1,2,1]  c72       10000000
    x[1,1,2,1]  c73       -10000000
    x[2,0,0,0]  OBJ       0
    x[2,0,0,1]  OBJ       0
    x[2,0,1,0]  OBJ       0
    x[2,0,1,1]  OBJ       0
    x[2,0,2,0]  OBJ       0
    x[2,0,2,1]  c74       10000000
    x[2,0,2,1]  c75       -10000000
    x[2,0,2,1]  c76       10000000
    x[2,0,2,1]  c77       -10000000
    x[2,1,0,0]  OBJ       0
    x[2,1,0,1]  OBJ       0
    x[2,1,1,0]  OBJ       0
    x[2,1,1,1]  OBJ       0
    x[2,1,2,0]  c78       10000000
    x[2,1,2,0]  c79       -10000000
    x[2,1,2,0]  c80       10000000
    x[2,1,2,0]  c81       -10000000
    x[2,1,2,1]  OBJ       0
    s[0,0,0]  c0        1
    s[0,0,0]  c1        1
    s[0,0,0]  c21       1
    s[0,0,0]  c31       1
    s[0,0,0]  c34       -1
    s[0,0,0]  c35       1
    s[0,0,0]  c38       -1
    s[0,0,0]  c39       1
    s[0,0,0]  c42       -1
    s[0,0,0]  c43       1
    s[0,0,0]  c46       -1
    s[0,0,0]  c47       1
    s[0,0,0]  c50       1
    s[0,0,0]  c51       -1
    s[0,0,0]  c82       1
    s[0,0,1]  c2        1
    s[0,0,1]  c3        1
    s[0,0,1]  c22       1
    s[0,0,1]  c31       1
    s[0,0,1]  c36       -1
    s[0,0,1]  c37       1
    s[0,0,1]  c40       -1
    s[0,0,1]  c41       1
    s[0,0,1]  c44       -1
    s[0,0,1]  c45       1
    s[0,0,1]  c48       -1
    s[0,0,1]  c49       1
    s[0,0,1]  c83       1
    s[0,1,0]  c23       1
    s[0,1,0]  c31       -1
    s[0,1,0]  c34       1
    s[0,1,0]  c35       -1
    s[0,1,0]  c50       -1
    s[0,1,0]  c51       1
    s[0,1,0]  c52       -1
    s[0,1,0]  c53       1
    s[0,1,0]  c54       -1
    s[0,1,0]  c55       1
    s[0,1,0]  c56       -1
    s[0,1,0]  c57       1
    s[0,1,0]  c84       1
    s[0,1,0]  c85       1
    s[1,0,1]  c4        1
    s[1,0,1]  c5        1
    s[1,0,1]  c24       1
    s[1,0,1]  c32       1
    s[1,0,1]  c36       1
    s[1,0,1]  c37       -1
    s[1,0,1]  c58       -1
    s[1,0,1]  c59       1
    s[1,0,1]  c60       -1
    s[1,0,1]  c61       1
    s[1,0,1]  c62       -1
    s[1,0,1]  c63       1
    s[1,0,1]  c64       1
    s[1,0,1]  c65       -1
    s[1,0,1]  c86       1
    s[1,1,0]  c25       1
    s[1,1,0]  c32       -1
    s[1,1,0]  c38       1
    s[1,1,0]  c39       -1
    s[1,1,0]  c52       1
    s[1,1,0]  c53       -1
    s[1,1,0]  c66       -1
    s[1,1,0]  c67       1
    s[1,1,0]  c70       -1
    s[1,1,0]  c71       1
    s[1,1,0]  c87       1
    s[1,1,0]  c88       1
    s[1,1,1]  c26       1
    s[1,1,1]  c32       -1
    s[1,1,1]  c40       1
    s[1,1,1]  c41       -1
    s[1,1,1]  c58       1
    s[1,1,1]  c59       -1
    s[1,1,1]  c64       -1
    s[1,1,1]  c65       1
    s[1,1,1]  c68       -1
    s[1,1,1]  c69       1
    s[1,1,1]  c72       -1
    s[1,1,1]  c73       1
    s[1,1,1]  c89       1
    s[1,1,1]  c90       1
    s[2,0,0]  c6        1
    s[2,0,0]  c7        1
    s[2,0,0]  c27       1
    s[2,0,0]  c33       1
    s[2,0,0]  c42       1
    s[2,0,0]  c43       -1
    s[2,0,0]  c54       1
    s[2,0,0]  c55       -1
    s[2,0,0]  c66       1
    s[2,0,0]  c67       -1
    s[2,0,0]  c74       -1
    s[2,0,0]  c75       1
    s[2,0,0]  c78       1
    s[2,0,0]  c79       -1
    s[2,0,0]  c91       1
    s[2,0,1]  c8        1
    s[2,0,1]  c9        1
    s[2,0,1]  c28       1
    s[2,0,1]  c33       1
    s[2,0,1]  c44       1
    s[2,0,1]  c45       -1
    s[2,0,1]  c60       1
    s[2,0,1]  c61       -1
    s[2,0,1]  c68       1
    s[2,0,1]  c69       -1
    s[2,0,1]  c76       -1
    s[2,0,1]  c77       1
    s[2,0,1]  c80       1
    s[2,0,1]  c81       -1
    s[2,0,1]  c92       1
    s[2,1,0]  c29       1
    s[2,1,0]  c33       -1
    s[2,1,0]  c46       1
    s[2,1,0]  c47       -1
    s[2,1,0]  c56       1
    s[2,1,0]  c57       -1
    s[2,1,0]  c70       1
    s[2,1,0]  c71       -1
    s[2,1,0]  c74       1
    s[2,1,0]  c75       -1
    s[2,1,0]  c78       -1
    s[2,1,0]  c79       1
    s[2,1,0]  c93       1
    s[2,1,0]  c94       1
    s[2,1,1]  c30       1
    s[2,1,1]  c33       -1
    s[2,1,1]  c48       1
    s[2,1,1]  c49       -1
    s[2,1,1]  c62       1
    s[2,1,1]  c63       -1
    s[2,1,1]  c72       1
    s[2,1,1]  c73       -1
    s[2,1,1]  c76       1
    s[2,1,1]  c77       -1
    s[2,1,1]  c80       -1
    s[2,1,1]  c81       1
    s[2,1,1]  c95       1
    s[2,1,1]  c96       1
    Z_FO      OBJ       1
    Z_FO      OF_constraint  1
    C57       c0        -10000000
    C57       c1        -10000000
    C57       c10       1
    C57       OF_constraint  393
    C58       c2        -10000000
    C58       c3        -10000000
    C58       c11       1
    C58       OF_constraint  385
    C59       c4        -10000000
    C59       c5        -10000000
    C59       c12       1
    C59       OF_constraint  407
    C60       c6        -10000000
    C60       c7        -10000000
    C60       c13       1
    C60       OF_constraint  437
    C61       c8        -10000000
    C61       c9        -10000000
    C61       c14       1
    C61       OF_constraint  419
    MARKER    'MARKER'                 'INTEND'
RHS
    RHS1      c0        -9999520
    RHS1      c1        480
    RHS1      c2        -9999520
    RHS1      c3        480
    RHS1      c4        -9999520
    RHS1      c5        480
    RHS1      c6        -9999520
    RHS1      c7        480
    RHS1      c8        -9999520
    RHS1      c9        480
    RHS1      c15       1
    RHS1      c16       1
    RHS1      c17       1
    RHS1      c18       1
    RHS1      c19       1
    RHS1      c20       1
    RHS1      c34       -19999388
    RHS1      c35       -29999827
    RHS1      c36       -19999555
    RHS1      c37       -29999759
    RHS1      c38       -19999613
    RHS1      c39       -29999601
    RHS1      c40       -19999725
    RHS1      c41       -29999707
    RHS1      c42       -19999791
    RHS1      c43       -29999833
    RHS1      c44       -19999572
    RHS1      c45       -29999886
    RHS1      c46       -19999608
    RHS1      c47       -29999770
    RHS1      c48       -19999740
    RHS1      c49       -29999250
    RHS1      c50       -19999827
    RHS1      c51       -29999388
    RHS1      c52       -19999561
    RHS1      c53       -29999347
    RHS1      c54       -19999844
    RHS1      c55       -29999307
    RHS1      c56       -19999425
    RHS1      c57       -29999674
    RHS1      c58       -19999603
    RHS1      c59       -29999615
    RHS1      c60       -19999588
    RHS1      c61       -29999574
    RHS1      c62       -19999814
    RHS1      c63       -29999685
    RHS1      c64       -19999615
    RHS1      c65       -29999603
    RHS1      c66       -19999805
    RHS1      c67       -29999699
    RHS1      c68       -19999826
    RHS1      c69       -29999459
    RHS1      c70       -19999628
    RHS1      c71       -29999705
    RHS1      c72       -19999893
    RHS1      c73       -29999665
    RHS1      c74       -19999798
    RHS1      c75       -29999814
    RHS1      c76       -19999576
    RHS1      c77       -29999769
    RHS1      c78       -19999814
    RHS1      c79       -29999798
    RHS1      c80       -19999769
    RHS1      c81       -29999576
BOUNDS
 BV BND1      y[0,0,0]
 BV BND1      y[0,0,1]
 BV BND1      y[0,1,0]
 BV BND1      y[1,0,1]
 BV BND1      y[1,1,0]
 BV BND1      y[1,1,1]
 BV BND1      y[2,0,0]
 BV BND1      y[2,0,1]
 BV BND1      y[2,1,0]
 BV BND1      y[2,1,1]
 BV BND1      x[0,0,0,0]
 BV BND1      x[0,0,0,1]
 BV BND1      x[0,0,1,0]
 BV BND1      x[0,0,1,1]
 BV BND1      x[0,0,2,0]
 BV BND1      x[0,0,2,1]
 BV BND1      x[0,1,0,0]
 BV BND1      x[0,1,0,1]
 BV BND1      x[0,1,1,0]
 BV BND1      x[0,1,1,1]
 BV BND1      x[0,1,2,0]
 BV BND1      x[0,1,2,1]
 BV BND1      x[1,0,0,0]
 BV BND1      x[1,0,0,1]
 BV BND1      x[1,0,1,0]
 BV BND1      x[1,0,1,1]
 BV BND1      x[1,0,2,0]
 BV BND1      x[1,0,2,1]
 BV BND1      x[1,1,0,0]
 BV BND1      x[1,1,0,1]
 BV BND1      x[1,1,1,0]
 BV BND1      x[1,1,1,1]
 BV BND1      x[1,1,2,0]
 BV BND1      x[1,1,2,1]
 BV BND1      x[2,0,0,0]
 BV BND1      x[2,0,0,1]
 BV BND1      x[2,0,1,0]
 BV BND1      x[2,0,1,1]
 BV BND1      x[2,0,2,0]
 BV BND1      x[2,0,2,1]
 BV BND1      x[2,1,0,0]
 BV BND1      x[2,1,0,1]
 BV BND1      x[2,1,1,0]
 BV BND1      x[2,1,1,1]
 BV BND1      x[2,1,2,0]
 BV BND1      x[2,1,2,1]
 LI BND1      s[0,0,0]  0
 LI BND1      s[0,0,1]  0
 LI BND1      s[0,1,0]  0
 LI BND1      s[1,0,1]  0
 LI BND1      s[1,1,0]  0
 LI BND1      s[1,1,1]  0
 LI BND1      s[2,0,0]  0
 LI BND1      s[2,0,1]  0
 LI BND1      s[2,1,0]  0
 LI BND1      s[2,1,1]  0
 LI BND1      Z_FO      0
 BV BND1      C57     
 BV BND1      C58     
 BV BND1      C59     
 BV BND1      C60     
 BV BND1      C61     
QCMATRIX   OF_constraint
    s[0,0,0]  C57       -0.5
    C57       s[0,0,0]  -0.5
    s[0,0,1]  C58       -0.5
    C58       s[0,0,1]  -0.5
    s[1,0,1]  C59       -0.5
    C59       s[1,0,1]  -0.5
    s[2,0,0]  C60       -0.5
    C60       s[2,0,0]  -0.5
    s[2,0,1]  C61       -0.5
    C61       s[2,0,1]  -0.5
ENDATA
