results/log/FMS_03_deadline_heurTrue.log

Gurobi 10.0.1 (win64) logging started Sun Oct  8 04:17:25 2023

Set parameter LogFile to value "./results//log/FMS_03_deadline_heurTrue.log"
Gurobi Optimizer version 10.0.1 build v10.0.1rc0 (win64)

CPU model: AMD Ryzen 7 3700X 8-Core Processor, instruction set [SSE2|AVX|AVX2]
Thread count: 8 physical cores, 16 logical processors, using up to 16 threads

Optimize a model with 97 rows, 62 columns and 340 nonzeros
Model fingerprint: 0xc58934d5
Model has 1 quadratic constraint
Variable types: 0 continuous, 62 integer (51 binary)
Coefficient statistics:
  Matrix range     [1e+00, 1e+07]
  QMatrix range    [1e+00, 1e+00]
  QLMatrix range   [1e+00, 4e+02]
  Objective range  [1e+00, 1e+00]
  Bounds range     [1e+00, 1e+00]
  RHS range        [1e+00, 3e+07]

User MIP start did not produce a new incumbent solution
User MIP start violates constraint initial_start_time_job0_stage0_machine0_constraint by 420.000000000

Presolve removed 28 rows and 28 columns
Presolve time: 0.01s
Presolved: 75 rows, 38 columns, 295 nonzeros
Variable types: 0 continuous, 38 integer (23 binary)

Root relaxation: objective 0.000000e+00, 17 iterations, 0.00 seconds (0.00 work units)

    Nodes    |    Current Node    |     Objective Bounds      |     Work
 Expl Unexpl |  Obj  Depth IntInf | Incumbent    BestBd   Gap | It/Node Time

     0     0    0.00000    0    9          -    0.00000      -     -    0s
Another try with MIP start
H    0     0                    1506.0000000    0.00000   100%     -    0s
     0     0    0.00000    0    8 1506.00000    0.00000   100%     -    0s
H    0     0                    1282.0000000  424.01494  66.9%     -    0s
     0     0  442.00000    0   15 1282.00000  442.00000  65.5%     -    0s
H    0     0                    1276.0000000  442.00000  65.4%     -    0s
     0     0  452.00000    0   14 1276.00000  452.00000  64.6%     -    0s
     0     0  756.00000    0   10 1276.00000  756.00000  40.8%     -    0s
H    0     0                    1180.0000000  756.00000  35.9%     -    0s
     0     0  898.00000    0   14 1180.00000  898.00000  23.9%     -    0s
     0     0  904.00058    0   18 1180.00000  904.00058  23.4%     -    0s
     0     0 1013.00000    0   16 1180.00000 1013.00000  14.2%     -    0s
     0     0 1160.00000    0   18 1180.00000 1160.00000  1.69%     -    0s

Cutting planes:
  Learned: 4
  Implied bound: 4
  MIR: 7
  Flow cover: 1
  RLT: 5

Explored 1 nodes (160 simplex iterations) in 0.15 seconds (0.01 work units)
Thread count was 16 (of 16 available processors)

Solution count 4: 1180 1276 1282 1506 

Optimal solution found (tolerance 1.00e-04)
Best objective 1.180000000000e+03, best bound 1.180000000000e+03, gap 0.0000%
Warning: constraint name "precedence between 0,0 to 0,1 if x_[0,0,0,1,0]=0, i.e. 0,1 before 0,0" has a space
Warning: constraint name "precedence between 0,0 to 0,1 if x_[0,0,0,1,0]=0, i.e. 0,1 before 0,0" has a space
Warning: default constraint names used to write mps file
